c nIsolatedPIs 0
c maxPI 12
p cnf 197 556
c gate 13 1 7 0
1 -13 0
7 -13 0
-1 -7 13 0
c gate 14 2 6 0
2 -14 0
6 -14 0
-2 -6 14 0
c gate 15 3 5 0
3 -15 0
5 -15 0
-3 -5 15 0
c gate 16 -14 -15 0
-14 -16 0
-15 -16 0
14 15 16 0
c gate 17 13 -16 0
13 -17 0
-16 -17 0
-13 16 17 0
c gate 18 2 7 0
2 -18 0
7 -18 0
-2 -7 18 0
c gate 19 3 6 0
3 -19 0
6 -19 0
-3 -6 19 0
c gate 20 4 5 0
4 -20 0
5 -20 0
-4 -5 20 0
c gate 21 -19 -20 0
-19 -21 0
-20 -21 0
19 20 21 0
c gate 22 -18 21 0
-18 -22 0
21 -22 0
18 -21 22 0
c gate 23 17 -22 0
17 -23 0
-22 -23 0
-17 22 23 0
c gate 24 1 8 0
1 -24 0
8 -24 0
-1 -8 24 0
c gate 25 -17 22 0
-17 -25 0
22 -25 0
17 -22 25 0
c gate 26 -23 -25 0
-23 -26 0
-25 -26 0
23 25 26 0
c gate 27 24 26 0
24 -27 0
26 -27 0
-24 -26 27 0
c gate 28 -23 -27 0
-23 -28 0
-27 -28 0
23 27 28 0
c gate 29 2 8 0
2 -29 0
8 -29 0
-2 -8 29 0
c gate 30 4 6 0
4 -30 0
6 -30 0
-4 -6 30 0
c gate 31 3 7 0
3 -31 0
7 -31 0
-3 -7 31 0
c gate 32 -30 -31 0
-30 -32 0
-31 -32 0
30 31 32 0
c gate 33 -29 32 0
-29 -33 0
32 -33 0
29 -32 33 0
c gate 34 -28 -33 0
-28 -34 0
-33 -34 0
28 33 34 0
c gate 35 28 33 0
28 -35 0
33 -35 0
-28 -33 35 0
c gate 36 -34 -35 0
-34 -36 0
-35 -36 0
34 35 36 0
c gate 37 -24 -26 0
-24 -37 0
-26 -37 0
24 26 37 0
c gate 38 -27 -37 0
-27 -38 0
-37 -38 0
27 37 38 0
c gate 39 12 38 0
12 -39 0
38 -39 0
-12 -38 39 0
c gate 40 -13 16 0
-13 -40 0
16 -40 0
13 -16 40 0
c gate 41 -17 -40 0
-17 -41 0
-40 -41 0
17 40 41 0
c gate 42 11 41 0
11 -42 0
41 -42 0
-11 -41 42 0
c gate 43 2 5 0
2 -43 0
5 -43 0
-2 -5 43 0
c gate 44 1 6 0
1 -44 0
6 -44 0
-1 -6 44 0
c gate 45 -43 -44 0
-43 -45 0
-44 -45 0
43 44 45 0
c gate 46 10 -45 0
10 -46 0
-45 -46 0
-10 45 46 0
c gate 47 1 5 0
1 -47 0
5 -47 0
-1 -5 47 0
c gate 48 9 47 0
9 -48 0
47 -48 0
-9 -47 48 0
c gate 49 -10 45 0
-10 -49 0
45 -49 0
10 -45 49 0
c gate 50 -46 -49 0
-46 -50 0
-49 -50 0
46 49 50 0
c gate 51 48 50 0
48 -51 0
50 -51 0
-48 -50 51 0
c gate 52 -46 -51 0
-46 -52 0
-51 -52 0
46 51 52 0
c gate 53 -11 -41 0
-11 -53 0
-41 -53 0
11 41 53 0
c gate 54 -42 -53 0
-42 -54 0
-53 -54 0
42 53 54 0
c gate 55 -52 54 0
-52 -55 0
54 -55 0
52 -54 55 0
c gate 56 -42 -55 0
-42 -56 0
-55 -56 0
42 55 56 0
c gate 57 -12 -38 0
-12 -57 0
-38 -57 0
12 38 57 0
c gate 58 -39 -57 0
-39 -58 0
-57 -58 0
39 57 58 0
c gate 59 -56 58 0
-56 -59 0
58 -59 0
56 -58 59 0
c gate 60 -39 -59 0
-39 -60 0
-59 -60 0
39 59 60 0
c gate 61 36 -60 0
36 -61 0
-60 -61 0
-36 60 61 0
c gate 62 -36 60 0
-36 -62 0
60 -62 0
36 -60 62 0
c gate 63 -61 -62 0
-61 -63 0
-62 -63 0
61 62 63 0
c gate 64 43 44 0
43 -64 0
44 -64 0
-43 -44 64 0
c gate 65 14 15 0
14 -65 0
15 -65 0
-14 -15 65 0
c gate 66 -13 65 0
-13 -66 0
65 -66 0
13 -65 66 0
c gate 67 -41 -65 0
-41 -67 0
-65 -67 0
41 65 67 0
c gate 68 -66 -67 0
-66 -68 0
-67 -68 0
66 67 68 0
c gate 69 64 68 0
64 -69 0
68 -69 0
-64 -68 69 0
c gate 70 19 20 0
19 -70 0
20 -70 0
-19 -20 70 0
c gate 71 -21 -70 0
-21 -71 0
-70 -71 0
21 70 71 0
c gate 72 -18 -71 0
-18 -72 0
-71 -72 0
18 71 72 0
c gate 73 18 71 0
18 -73 0
71 -73 0
-18 -71 73 0
c gate 74 -72 -73 0
-72 -74 0
-73 -74 0
72 73 74 0
c gate 75 -17 -65 0
-17 -75 0
-65 -75 0
17 65 75 0
c gate 76 74 -75 0
74 -76 0
-75 -76 0
-74 75 76 0
c gate 77 -74 75 0
-74 -77 0
75 -77 0
74 -75 77 0
c gate 78 -76 -77 0
-76 -78 0
-77 -78 0
76 77 78 0
c gate 79 24 78 0
24 -79 0
78 -79 0
-24 -78 79 0
c gate 80 -24 -78 0
-24 -80 0
-78 -80 0
24 78 80 0
c gate 81 -79 -80 0
-79 -81 0
-80 -81 0
79 80 81 0
c gate 82 69 81 0
69 -82 0
81 -82 0
-69 -81 82 0
c gate 83 -76 -79 0
-76 -83 0
-79 -83 0
76 79 83 0
c gate 84 -70 -73 0
-70 -84 0
-73 -84 0
70 73 84 0
c gate 85 30 31 0
30 -85 0
31 -85 0
-30 -31 85 0
c gate 86 -32 -85 0
-32 -86 0
-85 -86 0
32 85 86 0
c gate 87 -84 86 0
-84 -87 0
86 -87 0
84 -86 87 0
c gate 88 84 -86 0
84 -88 0
-86 -88 0
-84 86 88 0
c gate 89 -87 -88 0
-87 -89 0
-88 -89 0
87 88 89 0
c gate 90 -29 -89 0
-29 -90 0
-89 -90 0
29 89 90 0
c gate 91 29 89 0
29 -91 0
89 -91 0
-29 -89 91 0
c gate 92 -90 -91 0
-90 -92 0
-91 -92 0
90 91 92 0
c gate 93 83 -92 0
83 -93 0
-92 -93 0
-83 92 93 0
c gate 94 -83 92 0
-83 -94 0
92 -94 0
83 -92 94 0
c gate 95 -93 -94 0
-93 -95 0
-94 -95 0
93 94 95 0
c gate 96 82 95 0
82 -96 0
95 -96 0
-82 -95 96 0
c gate 97 -82 -95 0
-82 -97 0
-95 -97 0
82 95 97 0
c gate 98 -96 -97 0
-96 -98 0
-97 -98 0
96 97 98 0
c gate 99 -69 -81 0
-69 -99 0
-81 -99 0
69 81 99 0
c gate 100 -82 -99 0
-82 -100 0
-99 -100 0
82 99 100 0
c gate 101 12 100 0
12 -101 0
100 -101 0
-12 -100 101 0
c gate 102 -12 -100 0
-12 -102 0
-100 -102 0
12 100 102 0
c gate 103 -101 -102 0
-101 -103 0
-102 -103 0
101 102 103 0
c gate 104 -64 -68 0
-64 -104 0
-68 -104 0
64 68 104 0
c gate 105 -69 -104 0
-69 -105 0
-104 -105 0
69 104 105 0
c gate 106 11 105 0
11 -106 0
105 -106 0
-11 -105 106 0
c gate 107 -11 -105 0
-11 -107 0
-105 -107 0
11 105 107 0
c gate 108 -48 -50 0
-48 -108 0
-50 -108 0
48 50 108 0
c gate 109 -51 -108 0
-51 -109 0
-108 -109 0
51 108 109 0
c gate 110 64 -109 0
64 -110 0
-109 -110 0
-64 109 110 0
c gate 111 -52 -110 0
-52 -111 0
-110 -111 0
52 110 111 0
c gate 112 -107 111 0
-107 -112 0
111 -112 0
107 -111 112 0
c gate 113 -106 -112 0
-106 -113 0
-112 -113 0
106 112 113 0
c gate 114 103 -113 0
103 -114 0
-113 -114 0
-103 113 114 0
c gate 115 -101 -114 0
-101 -115 0
-114 -115 0
101 114 115 0
c gate 116 98 -115 0
98 -116 0
-115 -116 0
-98 115 116 0
c gate 117 -98 115 0
-98 -117 0
115 -117 0
98 -115 117 0
c gate 118 -116 -117 0
-116 -118 0
-117 -118 0
116 117 118 0
c gate 119 63 -118 0
63 -119 0
-118 -119 0
-63 118 119 0
c gate 120 -63 118 0
-63 -120 0
118 -120 0
63 -118 120 0
c gate 121 -119 -120 0
-119 -121 0
-120 -121 0
119 120 121 0
c gate 122 56 -58 0
56 -122 0
-58 -122 0
-56 58 122 0
c gate 123 -59 -122 0
-59 -123 0
-122 -123 0
59 122 123 0
c gate 124 -103 113 0
-103 -124 0
113 -124 0
103 -113 124 0
c gate 125 -114 -124 0
-114 -125 0
-124 -125 0
114 124 125 0
c gate 126 123 -125 0
123 -126 0
-125 -126 0
-123 125 126 0
c gate 127 -123 125 0
-123 -127 0
125 -127 0
123 -125 127 0
c gate 128 -106 -107 0
-106 -128 0
-107 -128 0
106 107 128 0
c gate 129 -55 -128 0
-55 -129 0
-128 -129 0
55 128 129 0
c gate 130 52 -54 0
52 -130 0
-54 -130 0
-52 54 130 0
c gate 131 -110 -130 0
-110 -131 0
-130 -131 0
110 130 131 0
c gate 132 128 131 0
128 -132 0
131 -132 0
-128 -131 132 0
c gate 133 -129 -132 0
-129 -133 0
-132 -133 0
129 132 133 0
c gate 134 -127 -133 0
-127 -134 0
-133 -134 0
127 133 134 0
c gate 135 -126 -134 0
-126 -135 0
-134 -135 0
126 134 135 0
c gate 136 3 8 0
3 -136 0
8 -136 0
-3 -8 136 0
c gate 137 4 7 0
4 -137 0
7 -137 0
-4 -7 137 0
c gate 138 -19 137 0
-19 -138 0
137 -138 0
19 -137 138 0
c gate 139 136 -138 0
136 -139 0
-138 -139 0
-136 138 139 0
c gate 140 -136 138 0
-136 -140 0
138 -140 0
136 -138 140 0
c gate 141 -139 -140 0
-139 -141 0
-140 -141 0
139 140 141 0
c gate 142 -34 -61 0
-34 -142 0
-61 -142 0
34 61 142 0
c gate 143 -141 -142 0
-141 -143 0
-142 -143 0
141 142 143 0
c gate 144 141 142 0
141 -144 0
142 -144 0
-141 -142 144 0
c gate 145 -143 -144 0
-143 -145 0
-144 -145 0
143 144 145 0
c gate 146 -94 -96 0
-94 -146 0
-96 -146 0
94 96 146 0
c gate 147 -87 -91 0
-87 -147 0
-91 -147 0
87 91 147 0
c gate 148 -141 -147 0
-141 -148 0
-147 -148 0
141 147 148 0
c gate 149 141 147 0
141 -149 0
147 -149 0
-141 -147 149 0
c gate 150 -148 -149 0
-148 -150 0
-149 -150 0
148 149 150 0
c gate 151 -146 150 0
-146 -151 0
150 -151 0
146 -150 151 0
c gate 152 146 -150 0
146 -152 0
-150 -152 0
-146 150 152 0
c gate 153 -151 -152 0
-151 -153 0
-152 -153 0
151 152 153 0
c gate 154 116 153 0
116 -154 0
153 -154 0
-116 -153 154 0
c gate 155 -116 -153 0
-116 -155 0
-153 -155 0
116 153 155 0
c gate 156 -154 -155 0
-154 -156 0
-155 -156 0
154 155 156 0
c gate 157 -145 156 0
-145 -157 0
156 -157 0
145 -156 157 0
c gate 158 -120 -135 0
-120 -158 0
-135 -158 0
120 135 158 0
c gate 159 -119 -158 0
-119 -159 0
-158 -159 0
119 158 159 0
c gate 160 -157 -159 0
-157 -160 0
-159 -160 0
157 159 160 0
c gate 161 -148 -151 0
-148 -161 0
-151 -161 0
148 151 161 0
c gate 162 4 8 0
4 -162 0
8 -162 0
-4 -8 162 0
c gate 163 -31 162 0
-31 -163 0
162 -163 0
31 -162 163 0
c gate 164 -8 85 0
-8 -164 0
85 -164 0
8 -85 164 0
c gate 165 -163 -164 0
-163 -165 0
-164 -165 0
163 164 165 0
c gate 166 -161 -165 0
-161 -166 0
-165 -166 0
161 165 166 0
c gate 167 161 165 0
161 -167 0
165 -167 0
-161 -165 167 0
c gate 168 -166 -167 0
-166 -168 0
-167 -168 0
166 167 168 0
c gate 169 154 168 0
154 -169 0
168 -169 0
-154 -168 169 0
c gate 170 -154 -168 0
-154 -170 0
-168 -170 0
154 168 170 0
c gate 171 -169 -170 0
-169 -171 0
-170 -171 0
169 170 171 0
c gate 172 -61 163 0
-61 -172 0
163 -172 0
61 -163 172 0
c gate 173 143 -172 0
143 -173 0
-172 -173 0
-143 172 173 0
c gate 174 34 -141 0
34 -174 0
-141 -174 0
-34 141 174 0
c gate 175 -31 -174 0
-31 -175 0
-174 -175 0
31 174 175 0
c gate 176 162 175 0
162 -176 0
175 -176 0
-162 -175 176 0
c gate 177 -173 -176 0
-173 -177 0
-176 -177 0
173 176 177 0
c gate 178 -171 -177 0
-171 -178 0
-177 -178 0
171 177 178 0
c gate 179 145 -156 0
145 -179 0
-156 -179 0
-145 156 179 0
c gate 180 -178 -179 0
-178 -180 0
-179 -180 0
178 179 180 0
c gate 181 -160 180 0
-160 -181 0
180 -181 0
160 -180 181 0
c gate 182 171 177 0
171 -182 0
177 -182 0
-171 -177 182 0
c gate 183 162 -175 0
162 -183 0
-175 -183 0
-162 175 183 0
c gate 184 -166 -169 0
-166 -184 0
-169 -184 0
166 169 184 0
c gate 185 -183 -184 0
-183 -185 0
-184 -185 0
183 184 185 0
c gate 186 -182 -185 0
-182 -186 0
-185 -186 0
182 185 186 0
c gate 187 -181 186 0
-181 -187 0
186 -187 0
181 -186 187 0
c gate 188 135 187 0
135 -188 0
187 -188 0
-135 -187 188 0
c gate 189 -64 -65 0
-64 -189 0
-65 -189 0
64 65 189 0
c gate 190 -133 -189 0
-133 -190 0
-189 -190 0
133 189 190 0
c gate 191 -126 -190 0
-126 -191 0
-190 -191 0
126 190 191 0
c gate 192 -127 -191 0
-127 -192 0
-191 -192 0
127 191 192 0
c gate 193 -187 192 0
-187 -193 0
192 -193 0
187 -192 193 0
c gate 194 -188 -193 0
-188 -194 0
-193 -194 0
188 193 194 0
c gate 195 121 -194 0
121 -195 0
-194 -195 0
-121 194 195 0
c gate 196 -121 194 0
-121 -196 0
194 -196 0
121 -194 196 0
c gate 197 -195 -196 0
-195 -197 0
-196 -197 0
195 196 197 0
c PO
-197 0
